p cnf 412 698
33 -45 11 76 0
33 -45 11 -76 0
8 49 23 77 0
8 49 23 -77 0
71 28 -18 78 0
71 28 -18 -78 0
47 -40 -7 79 0
47 -40 -7 -79 0
-18 -31 39 80 0
-18 -31 39 -80 0
17 15 -71 81 0
17 15 -71 -81 0
-29 30 -12 82 0
-29 30 -12 -82 0
6 -28 70 83 0
6 -28 70 -83 0
4 -37 63 84 0
4 -37 63 -84 0
65 -59 -66 85 0
65 -59 -66 -85 0
-54 68 63 86 0
-54 68 63 -86 0
14 49 -40 87 0
14 49 -40 -87 0
-67 -31 24 88 0
-67 -31 24 -88 0
-10 -57 49 89 0
-10 -57 49 -89 0
33 57 -73 90 0
33 57 -73 -90 0
-71 -64 -42 91 0
-71 -64 -42 -91 0
67 52 -35 92 0
67 52 -35 -92 0
-27 -69 -16 93 0
-27 -69 -16 -93 0
63 -65 -50 94 0
63 -65 -50 -94 0
-50 -20 24 95 0
-50 -20 24 -95 0
21 -39 -63 96 0
21 -39 -63 -96 0
-13 36 -8 97 0
-13 36 -8 -97 0
-71 30 9 98 0
-71 30 9 -98 0
-33 -74 52 99 0
-33 -74 52 -99 0
44 -5 -42 100 0
44 -5 -42 -100 0
36 11 20 101 0
36 11 20 -101 0
72 44 39 102 0
72 44 39 -102 0
73 -9 -31 103 0
73 -9 -31 -103 0
-8 11 38 104 0
-8 11 38 -104 0
-3 -48 -27 105 0
-3 -48 -27 -105 0
-42 -24 -10 106 0
-42 -24 -10 -106 0
65 -43 10 107 0
65 -43 10 -107 0
-29 -45 31 108 0
-29 -45 31 -108 0
-23 -58 20 109 0
-23 -58 20 -109 0
7 44 -71 110 0
7 44 -71 -110 0
-33 -54 -7 111 0
-33 -54 -7 -111 0
8 -30 -22 112 0
8 -30 -22 -112 0
-39 -12 38 113 0
-39 -12 38 -113 0
3 19 70 114 0
3 19 70 -114 0
-47 -10 6 115 0
-47 -10 6 -115 0
26 -2 72 116 0
26 -2 72 -116 0
12 -51 -66 117 0
12 -51 -66 -117 0
-26 32 -61 118 0
-26 32 -61 -118 0
-1 -29 74 119 0
-1 -29 74 -119 0
32 -23 -12 120 0
32 -23 -12 -120 0
-54 -16 57 121 0
-54 -16 57 -121 0
11 60 -1 122 0
11 60 -1 -122 0
50 44 -25 123 0
50 44 -25 -123 0
16 32 -4 124 0
16 32 -4 -124 0
16 58 -2 125 0
16 58 -2 -125 0
-8 -73 64 126 0
-8 -73 64 -126 0
-58 -41 14 127 0
-58 -41 14 -127 0
-34 -27 32 128 0
-34 -27 32 -128 0
-9 -14 -23 129 0
-9 -14 -23 -129 0
-23 -65 -66 130 0
-23 -65 -66 -130 0
39 -64 -62 131 0
39 -64 -62 -131 0
-69 -10 14 132 0
-69 -10 14 -132 0
11 19 -52 133 0
11 19 -52 -133 0
14 -16 -66 134 0
14 -16 -66 -134 0
-75 -3 44 135 0
-75 -3 44 -135 0
-64 7 -13 136 0
-64 7 -13 -136 0
-51 -11 -66 137 0
-51 -11 -66 -137 0
-10 74 3 138 0
-10 74 3 -138 0
44 -16 -19 139 0
44 -16 -19 -139 0
-14 -52 -2 140 0
-14 -52 -2 -140 0
6 32 -52 141 0
6 32 -52 -141 0
-74 -57 -5 142 0
-74 -57 -5 -142 0
-47 -56 -66 143 0
-47 -56 -66 -143 0
-53 -10 -9 144 0
-53 -10 -9 -144 0
-70 -58 38 145 0
-70 -58 38 -145 0
40 -44 -36 146 0
40 -44 -36 -146 0
11 -60 -24 147 0
11 -60 -24 -147 0
-7 -20 50 148 0
-7 -20 50 -148 0
-65 -45 -26 149 0
-65 -45 -26 -149 0
59 35 53 150 0
59 35 53 -150 0
-26 70 -61 151 0
-26 70 -61 -151 0
-30 22 31 152 0
-30 22 31 -152 0
48 -44 23 153 0
48 -44 23 -153 0
-38 30 61 154 0
-38 30 61 -154 0
58 12 61 155 0
58 12 61 -155 0
52 -59 11 156 0
52 -59 11 -156 0
-9 -75 45 157 0
-9 -75 45 -157 0
-43 -25 49 158 0
-43 -25 49 -158 0
-6 -9 -44 159 0
-6 -9 -44 -159 0
18 54 -9 160 0
18 54 -9 -160 0
19 66 -26 161 0
19 66 -26 -161 0
53 -36 -71 162 0
53 -36 -71 -162 0
27 42 -73 163 0
27 42 -73 -163 0
-15 38 -52 164 0
-15 38 -52 -164 0
-56 -46 -26 165 0
-56 -46 -26 -165 0
31 -68 -56 166 0
31 -68 -56 -166 0
74 19 48 167 0
74 19 48 -167 0
-47 60 -18 168 0
-47 60 -18 -168 0
-63 54 38 169 0
-63 54 38 -169 0
27 53 36 170 0
27 53 36 -170 0
46 -18 31 171 0
46 -18 31 -171 0
-4 -39 -32 172 0
-4 -39 -32 -172 0
72 31 -34 173 0
72 31 -34 -173 0
75 66 28 174 0
75 66 28 -174 0
47 64 12 175 0
47 64 12 -175 0
7 50 56 176 0
7 50 56 -176 0
50 -6 -59 177 0
50 -6 -59 -177 0
55 -53 73 178 0
55 -53 73 -178 0
63 66 67 179 0
63 66 67 -179 0
-51 74 17 180 0
-51 74 17 -180 0
25 -12 -71 181 0
25 -12 -71 -181 0
24 -2 -8 182 0
24 -2 -8 -182 0
10 36 -47 183 0
10 36 -47 -183 0
10 -17 -39 184 0
10 -17 -39 -184 0
-1 -43 9 185 0
-1 -43 9 -185 0
12 60 25 186 0
12 60 25 -186 0
-40 57 23 187 0
-40 57 23 -187 0
-21 -41 -68 188 0
-21 -41 -68 -188 0
54 -9 -3 189 0
54 -9 -3 -189 0
-4 20 66 190 0
-4 20 66 -190 0
52 58 -18 191 0
52 58 -18 -191 0
67 27 -29 192 0
67 27 -29 -192 0
-24 -72 42 193 0
-24 -72 42 -193 0
-45 -72 9 194 0
-45 -72 9 -194 0
-52 -70 -8 195 0
-52 -70 -8 -195 0
-44 -39 24 196 0
-44 -39 24 -196 0
-43 -39 54 197 0
-43 -39 54 -197 0
47 -65 -7 198 0
47 -65 -7 -198 0
19 -26 -67 199 0
19 -26 -67 -199 0
-31 49 36 200 0
-31 49 36 -200 0
4 -59 61 201 0
4 -59 61 -201 0
54 13 -72 202 0
54 13 -72 -202 0
-42 -56 27 203 0
-42 -56 27 -203 0
43 -13 33 204 0
43 -13 33 -204 0
1 70 5 205 0
1 70 5 -205 0
-58 -36 -4 206 0
-58 -36 -4 -206 0
-1 -42 -61 207 0
-1 -42 -61 -207 0
-36 40 -51 208 0
-36 40 -51 -208 0
70 55 57 209 0
70 55 57 -209 0
-58 -15 63 210 0
-58 -15 63 -210 0
35 -8 -11 211 0
35 -8 -11 -211 0
4 37 -45 212 0
4 37 -45 -212 0
36 74 -16 213 0
36 74 -16 -213 0
-18 66 -41 214 0
-18 66 -41 -214 0
29 -20 -1 215 0
29 -20 -1 -215 0
23 30 -56 216 0
23 30 -56 -216 0
-17 35 -13 217 0
-17 35 -13 -217 0
-25 72 -47 218 0
-25 72 -47 -218 0
-25 37 -48 219 0
-25 37 -48 -219 0
-52 -36 -72 220 0
-52 -36 -72 -220 0
25 73 -22 221 0
25 73 -22 -221 0
-57 46 -13 222 0
-57 46 -13 -222 0
42 57 -45 223 0
42 57 -45 -223 0
-70 46 26 224 0
-70 46 26 -224 0
19 -12 -68 225 0
19 -12 -68 -225 0
7 13 -40 226 0
7 13 -40 -226 0
7 -1 -41 227 0
7 -1 -41 -227 0
68 -37 -53 228 0
68 -37 -53 -228 0
-26 44 45 229 0
-26 44 45 -229 0
-8 -30 17 230 0
-8 -30 17 -230 0
42 52 18 231 0
42 52 18 -231 0
-2 12 36 232 0
-2 12 36 -232 0
39 -24 -67 233 0
39 -24 -67 -233 0
-16 -12 10 234 0
-16 -12 10 -234 0
65 -69 51 235 0
65 -69 51 -235 0
10 -36 71 236 0
10 -36 71 -236 0
63 43 -12 237 0
63 43 -12 -237 0
-55 -48 -67 238 0
-55 -48 -67 -238 0
12 -5 -63 239 0
12 -5 -63 -239 0
43 -54 44 240 0
43 -54 44 -240 0
37 69 -73 241 0
37 69 -73 -241 0
-34 8 7 242 0
-34 8 7 -242 0
13 -11 -65 243 0
13 -11 -65 -243 0
-56 68 -59 244 0
-56 68 -59 -244 0
-18 -58 26 245 0
-18 -58 26 -245 0
23 -37 3 246 0
23 -37 3 -246 0
-59 -28 -30 247 0
-59 -28 -30 -247 0
-7 11 -72 248 0
-7 11 -72 -248 0
50 -70 -46 249 0
50 -70 -46 -249 0
5 -56 -43 250 0
5 -56 -43 -250 0
-40 65 -4 251 0
-40 65 -4 -251 0
65 -68 26 252 0
65 -68 26 -252 0
6 -65 -34 253 0
6 -65 -34 -253 0
54 -35 42 254 0
54 -35 42 -254 0
-9 72 60 255 0
-9 72 60 -255 0
18 66 16 256 0
18 66 16 -256 0
-20 -22 -17 257 0
-20 -22 -17 -257 0
69 -46 -65 258 0
69 -46 -65 -258 0
-75 -26 10 259 0
-75 -26 10 -259 0
46 58 73 260 0
46 58 73 -260 0
-57 -51 -15 261 0
-57 -51 -15 -261 0
-22 -17 68 262 0
-22 -17 68 -262 0
38 55 -4 263 0
38 55 -4 -263 0
3 -7 -1 264 0
3 -7 -1 -264 0
13 -19 -32 265 0
13 -19 -32 -265 0
-34 31 -41 266 0
-34 31 -41 -266 0
19 49 -55 267 0
19 49 -55 -267 0
-45 50 21 268 0
-45 50 21 -268 0
24 4 35 269 0
24 4 35 -269 0
74 28 -26 270 0
74 28 -26 -270 0
-21 -70 -30 271 0
-21 -70 -30 -271 0
26 -61 -31 272 0
26 -61 -31 -272 0
-46 42 17 273 0
-46 42 17 -273 0
-20 -39 22 274 0
-20 -39 22 -274 0
61 62 65 275 0
61 62 65 -275 0
-10 39 -21 276 0
-10 39 -21 -276 0
-21 -51 -49 277 0
-21 -51 -49 -277 0
19 26 13 278 0
19 26 13 -278 0
-53 37 -67 279 0
-53 37 -67 -279 0
37 1 -41 280 0
37 1 -41 -280 0
-52 -21 -72 281 0
-52 -21 -72 -281 0
-6 21 34 282 0
-6 21 34 -282 0
75 -27 -18 283 0
75 -27 -18 -283 0
12 5 37 284 0
12 5 37 -284 0
-48 22 -56 285 0
-48 22 -56 -285 0
-49 -54 60 286 0
-49 -54 60 -286 0
-31 43 -51 287 0
-31 43 -51 -287 0
68 -24 -3 288 0
68 -24 -3 -288 0
55 70 -51 289 0
55 70 -51 -289 0
32 -53 -17 290 0
32 -53 -17 -290 0
51 -23 -28 291 0
51 -23 -28 -291 0
-65 24 -33 292 0
-65 24 -33 -292 0
17 5 -6 293 0
17 5 -6 -293 0
-65 70 -58 294 0
-65 70 -58 -294 0
-36 -42 40 295 0
-36 -42 40 -295 0
-27 -29 38 296 0
-27 -29 38 -296 0
43 53 -54 297 0
43 53 -54 -297 0
-58 -34 70 298 0
-58 -34 70 -298 0
53 43 4 299 0
53 43 4 -299 0
-24 44 56 300 0
-24 44 56 -300 0
-3 47 -63 301 0
-3 47 -63 -301 0
-70 -69 -28 302 0
-70 -69 -28 -302 0
39 -52 -4 303 0
39 -52 -4 -303 0
-42 -18 25 304 0
-42 -18 25 -304 0
-59 -2 1 305 0
-59 -2 1 -305 0
-73 67 69 306 0
-73 67 69 -306 0
-35 -26 13 307 0
-35 -26 13 -307 0
31 -37 58 308 0
31 -37 58 -308 0
-16 37 41 309 0
-16 37 41 -309 0
-72 65 21 310 0
-72 65 21 -310 0
20 26 1 311 0
20 26 1 -311 0
-33 44 -56 312 0
-33 44 -56 -312 0
51 60 17 313 0
51 60 17 -313 0
56 -34 -47 314 0
56 -34 -47 -314 0
-41 -70 -43 315 0
-41 -70 -43 -315 0
-70 13 21 316 0
-70 13 21 -316 0
26 58 74 317 0
26 58 74 -317 0
61 3 13 318 0
61 3 13 -318 0
-13 16 -66 319 0
-13 16 -66 -319 0
37 -3 -59 320 0
37 -3 -59 -320 0
1 -58 64 321 0
1 -58 64 -321 0
-52 3 72 322 0
-52 3 72 -322 0
3 -70 -26 323 0
3 -70 -26 -323 0
47 -10 -2 324 0
47 -10 -2 -324 0
26 31 42 325 0
26 31 42 -325 0
-60 -35 -12 326 0
-60 -35 -12 -326 0
-62 33 67 327 0
-62 33 67 -327 0
6 10 -71 328 0
6 10 -71 -328 0
18 72 -2 329 0
18 72 -2 -329 0
58 -60 -25 330 0
58 -60 -25 -330 0
-53 54 -20 331 0
-53 54 -20 -331 0
-53 -12 -33 332 0
-53 -12 -33 -332 0
-45 1 -49 333 0
-45 1 -49 -333 0
33 -50 71 334 0
33 -50 71 -334 0
-29 -50 14 335 0
-29 -50 14 -335 0
-37 -51 61 336 0
-37 -51 61 -336 0
56 -17 23 337 0
56 -17 23 -337 0
52 -31 -18 338 0
52 -31 -18 -338 0
-24 29 -19 339 0
-24 29 -19 -339 0
-16 -67 -62 340 0
-16 -67 -62 -340 0
31 40 -54 341 0
31 40 -54 -341 0
68 20 13 342 0
68 20 13 -342 0
57 37 48 343 0
57 37 48 -343 0
-31 -61 -47 344 0
-31 -61 -47 -344 0
22 -64 -55 345 0
22 -64 -55 -345 0
-2 13 9 346 0
-2 13 9 -346 0
-46 17 -33 347 0
-46 17 -33 -347 0
-14 4 74 348 0
-14 4 74 -348 0
-9 41 -17 349 0
-9 41 -17 -349 0
44 -37 54 350 0
44 -37 54 -350 0
68 47 -49 351 0
68 47 -49 -351 0
-14 -73 15 352 0
-14 -73 15 -352 0
9 -70 -40 353 0
9 -70 -40 -353 0
-39 -65 16 354 0
-39 -65 16 -354 0
45 14 67 355 0
45 14 67 -355 0
60 30 7 356 0
60 30 7 -356 0
-32 46 31 357 0
-32 46 31 -357 0
-7 25 -6 358 0
-7 25 -6 -358 0
21 -71 51 359 0
21 -71 51 -359 0
-66 -21 -33 360 0
-66 -21 -33 -360 0
18 -29 -24 361 0
18 -29 -24 -361 0
57 -19 -25 362 0
57 -19 -25 -362 0
24 -71 66 363 0
24 -71 66 -363 0
-15 61 -19 364 0
-15 61 -19 -364 0
-10 -13 -16 365 0
-10 -13 -16 -365 0
-37 12 14 366 0
-37 12 14 -366 0
-41 17 20 367 0
-41 17 20 -367 0
31 54 -4 368 0
31 54 -4 -368 0
-45 23 -30 369 0
-45 23 -30 -369 0
-58 -22 -64 370 0
-58 -22 -64 -370 0
-57 26 69 371 0
-57 26 69 -371 0
71 -52 -46 372 0
71 -52 -46 -372 0
24 73 -53 373 0
24 73 -53 -373 0
71 -63 8 374 0
71 -63 8 -374 0
-2 33 41 375 0
-2 33 41 -375 0
-47 12 -56 376 0
-47 12 -56 -376 0
-69 3 43 377 0
-69 3 43 -377 0
39 -41 7 378 0
39 -41 7 -378 0
2 63 -13 379 0
2 63 -13 -379 0
-29 14 -21 380 0
-29 14 -21 -380 0
24 51 -63 381 0
24 51 -63 -381 0
70 -10 72 382 0
70 -10 72 -382 0
-47 13 -55 383 0
-47 13 -55 -383 0
3 -32 -34 384 0
3 -32 -34 -384 0
4 -69 -60 385 0
4 -69 -60 -385 0
-1 11 -39 386 0
-1 11 -39 -386 0
-57 -9 -65 387 0
-57 -9 -65 -387 0
-67 -18 51 388 0
-67 -18 51 -388 0
-18 73 37 389 0
-18 73 37 -389 0
22 -18 -71 390 0
22 -18 -71 -390 0
69 43 33 391 0
69 43 33 -391 0
-13 -16 -1 392 0
-13 -16 -1 -392 0
58 -4 14 393 0
58 -4 14 -393 0
47 72 -56 394 0
47 72 -56 -394 0
-44 -28 53 395 0
-44 -28 53 -395 0
44 -37 29 396 0
44 -37 29 -396 0
13 -5 50 397 0
13 -5 50 -397 0
-52 54 40 398 0
-52 54 40 -398 0
-10 54 -34 399 0
-10 54 -34 -399 0
47 44 -71 400 0
47 44 -71 -400 0
401 402 403 404 0
401 402 403 -404 0
401 402 -403 404 0
401 402 -403 -404 0
401 -402 403 404 0
401 -402 403 -404 0
401 -402 -403 404 0
401 -402 -403 -404 0
-401 402 403 404 0
-401 402 403 -404 0
-401 402 -403 404 0
-401 402 -403 -404 0
-401 -402 403 404 0
-401 -402 403 -404 0
-401 -402 -403 404 0
-401 -402 -403 -404 0
405 406 407 408 0
405 406 407 -408 0
405 406 -407 408 0
405 406 -407 -408 0
405 -406 407 408 0
405 -406 407 -408 0
405 -406 -407 408 0
405 -406 -407 -408 0
-405 406 407 408 0
-405 406 407 -408 0
-405 406 -407 408 0
-405 406 -407 -408 0
-405 -406 407 408 0
-405 -406 407 -408 0
-405 -406 -407 408 0
-405 -406 -407 -408 0
409 410 411 412 0
409 410 411 -412 0
409 410 -411 412 0
409 410 -411 -412 0
409 -410 411 412 0
409 -410 411 -412 0
409 -410 -411 412 0
409 -410 -411 -412 0
-409 410 411 412 0
-409 410 411 -412 0
-409 410 -411 412 0
-409 410 -411 -412 0
-409 -410 411 412 0
-409 -410 411 -412 0
-409 -410 -411 412 0
-409 -410 -411 -412 0
